(set-info :source |printed by MathSAT|)
(declare-fun call_speed.flby2 () Bool)
(declare-fun call_speed.call__COUNTER_.flby () Int)
(declare-fun early () Bool)
(declare-fun call_speed.ite2.next () Int)
(declare-fun call_speed.call__COUNTER_.ite.next () Int)
(declare-fun call_speed.call__COUNTER_._PC_.next () Int)
(declare-fun call_speed.flby.next () Bool)
(declare-fun param_beacon () Bool)
(declare-fun call_speed.diff.next () Int)
(declare-fun call_speed.call__COUNTER_.ite2 () Int)
(declare-fun call_speed.late () Bool)
(declare-fun _OK_.next () Bool)
(declare-fun call_speed.ite () Int)
(declare-fun call_speed.flby () Bool)
(declare-fun call_speed.diff () Int)
(declare-fun call_speed.ite.next () Int)
(declare-fun call_speed.incr () Int)
(declare-fun call_speed.incr.next () Int)
(declare-fun call_speed.call__COUNTER_._PC_ () Int)
(declare-fun call_speed.early.next () Bool)
(declare-fun param_beacon.next () Bool)
(declare-fun call_speed.flby2.next () Bool)
(declare-fun call_speed.ite4.next () Bool)
(declare-fun early.next () Bool)
(declare-fun param_second.next () Bool)
(declare-fun late () Bool)
(declare-fun late.next () Bool)
(declare-fun call_speed.call__COUNTER_.flby.next () Int)
(declare-fun param_second () Bool)
(declare-fun call_speed.call__COUNTER_._C_.next () Int)
(declare-fun _OK_ () Bool)
(declare-fun call_speed.early () Bool)
(declare-fun call_speed.ite2 () Int)
(declare-fun call_speed.ite3.next () Bool)
(declare-fun call_speed.call__COUNTER_.ite2.next () Int)
(declare-fun call_speed.late.next () Bool)
(declare-fun call_speed.call__COUNTER_._C_ () Int)
(declare-fun call_speed.call__COUNTER_.ite () Int)
(define-fun .def_369 () Bool (= call_speed.call__COUNTER_.ite.next call_speed.call__COUNTER_.ite2.next))
(define-fun .def_367 () Bool (= call_speed.call__COUNTER_.flby.next call_speed.call__COUNTER_._PC_.next))
(define-fun .def_365 () Bool (= call_speed.call__COUNTER_._C_.next call_speed.call__COUNTER_.ite2.next))
(define-fun .def_362 () Bool (= call_speed.incr.next call_speed.ite2.next))
(define-fun .def_360 () Bool (= call_speed.diff.next call_speed.call__COUNTER_._C_.next))
(define-fun .def_357 () Bool (= call_speed.flby.next call_speed.early.next))
(define-fun .def_355 () Bool (= call_speed.flby2.next call_speed.late.next))
(define-fun .def_351 () Bool (= call_speed.ite.next call_speed.ite2.next))
(define-fun .def_346 () Bool (not param_second.next))
(define-fun .def_347 () Bool (or param_beacon.next .def_346))
(define-fun .def_352 () Bool (or .def_347 .def_351))
(define-fun .def_348 () Bool (not .def_347))
(define-fun .def_345 () Bool (= call_speed.ite2.next 1))
(define-fun .def_349 () Bool (or .def_345 .def_348))
(define-fun .def_341 () Bool (= call_speed.ite.next 0))
(define-fun .def_336 () Bool (not param_beacon.next))
(define-fun .def_337 () Bool (or param_second.next .def_336))
(define-fun .def_342 () Bool (or .def_337 .def_341))
(define-fun .def_338 () Bool (not .def_337))
(define-fun .def_335 () Bool (= call_speed.ite.next 2))
(define-fun .def_339 () Bool (or .def_335 .def_338))
(define-fun .def_320 () Bool (or param_beacon.next param_second.next))
(define-fun .def_331 () Bool (not .def_320))
(define-fun .def_327 () Int (* (- 1) call_speed.call__COUNTER_.ite.next))
(define-fun .def_328 () Int (+ .def_327 call_speed.incr.next))
(define-fun .def_329 () Int (+ call_speed.call__COUNTER_._PC_.next .def_328))
(define-fun .def_330 () Bool (= .def_329 0))
(define-fun .def_332 () Bool (or .def_330 .def_331))
(define-fun .def_317 () Bool (= call_speed.call__COUNTER_._PC_.next call_speed.call__COUNTER_.ite.next))
(define-fun .def_321 () Bool (or .def_317 .def_320))
(define-fun .def_333 () Bool (and .def_321 .def_332))
(define-fun .def_340 () Bool (and .def_333 .def_339))
(define-fun .def_343 () Bool (and .def_340 .def_342))
(define-fun .def_350 () Bool (and .def_343 .def_349))
(define-fun .def_353 () Bool (and .def_350 .def_352))
(define-fun .def_313 () Bool (= early.next call_speed.early.next))
(define-fun .def_310 () Bool (= late.next call_speed.late.next))
(define-fun .def_306 () Bool (and late.next early.next))
(define-fun .def_307 () Bool (not .def_306))
(define-fun .def_308 () Bool (= _OK_.next .def_307))
(define-fun .def_311 () Bool (and .def_308 .def_310))
(define-fun .def_314 () Bool (and .def_311 .def_313))
(define-fun .def_354 () Bool (and .def_314 .def_353))
(define-fun .def_356 () Bool (and .def_354 .def_355))
(define-fun .def_358 () Bool (and .def_356 .def_357))
(define-fun .def_361 () Bool (and .def_358 .def_360))
(define-fun .def_363 () Bool (and .def_361 .def_362))
(define-fun .def_366 () Bool (and .def_363 .def_365))
(define-fun .def_368 () Bool (and .def_366 .def_367))
(define-fun .def_370 () Bool (and .def_368 .def_369))
(define-fun .def_264 () Bool (= call_speed.call__COUNTER_.ite call_speed.call__COUNTER_.ite2))
(define-fun .def_262 () Bool (= call_speed.call__COUNTER_._PC_ call_speed.call__COUNTER_.flby))
(define-fun .def_259 () Bool (= call_speed.call__COUNTER_._C_ call_speed.call__COUNTER_.ite2))
(define-fun .def_256 () Bool (= call_speed.incr call_speed.ite2))
(define-fun .def_254 () Bool (= call_speed.diff call_speed.call__COUNTER_._C_))
(define-fun .def_250 () Bool (= call_speed.early call_speed.flby))
(define-fun .def_247 () Bool (= call_speed.late call_speed.flby2))
(define-fun .def_242 () Bool (= call_speed.ite call_speed.ite2))
(define-fun .def_237 () Bool (not param_second))
(define-fun .def_238 () Bool (or param_beacon .def_237))
(define-fun .def_243 () Bool (or .def_238 .def_242))
(define-fun .def_239 () Bool (not .def_238))
(define-fun .def_236 () Bool (= call_speed.ite2 1))
(define-fun .def_240 () Bool (or .def_236 .def_239))
(define-fun .def_232 () Bool (= call_speed.ite 0))
(define-fun .def_227 () Bool (not param_beacon))
(define-fun .def_228 () Bool (or param_second .def_227))
(define-fun .def_233 () Bool (or .def_228 .def_232))
(define-fun .def_229 () Bool (not .def_228))
(define-fun .def_226 () Bool (= call_speed.ite 2))
(define-fun .def_230 () Bool (or .def_226 .def_229))
(define-fun .def_211 () Bool (or param_beacon param_second))
(define-fun .def_222 () Bool (not .def_211))
(define-fun .def_218 () Int (* (- 1) call_speed.call__COUNTER_.ite))
(define-fun .def_219 () Int (+ .def_218 call_speed.incr))
(define-fun .def_220 () Int (+ call_speed.call__COUNTER_._PC_ .def_219))
(define-fun .def_221 () Bool (= .def_220 0))
(define-fun .def_223 () Bool (or .def_221 .def_222))
(define-fun .def_208 () Bool (= call_speed.call__COUNTER_._PC_ call_speed.call__COUNTER_.ite))
(define-fun .def_212 () Bool (or .def_208 .def_211))
(define-fun .def_224 () Bool (and .def_212 .def_223))
(define-fun .def_231 () Bool (and .def_224 .def_230))
(define-fun .def_234 () Bool (and .def_231 .def_233))
(define-fun .def_241 () Bool (and .def_234 .def_240))
(define-fun .def_244 () Bool (and .def_241 .def_243))
(define-fun .def_204 () Bool (= early call_speed.early))
(define-fun .def_201 () Bool (= late call_speed.late))
(define-fun .def_197 () Bool (and late early))
(define-fun .def_198 () Bool (not .def_197))
(define-fun .def_199 () Bool (= _OK_ .def_198))
(define-fun .def_202 () Bool (and .def_199 .def_201))
(define-fun .def_205 () Bool (and .def_202 .def_204))
(define-fun .def_245 () Bool (and .def_205 .def_244))
(define-fun .def_248 () Bool (and .def_245 .def_247))
(define-fun .def_251 () Bool (and .def_248 .def_250))
(define-fun .def_255 () Bool (and .def_251 .def_254))
(define-fun .def_257 () Bool (and .def_255 .def_256))
(define-fun .def_260 () Bool (and .def_257 .def_259))
(define-fun .def_263 () Bool (and .def_260 .def_262))
(define-fun .def_265 () Bool (and .def_263 .def_264))
(define-fun .def_371 () Bool (and .def_265 .def_370))
(define-fun .def_301 () Bool (= call_speed.call__COUNTER_._C_ call_speed.call__COUNTER_.flby.next))
(define-fun .def_298 () Bool (= call_speed.ite4.next call_speed.flby2.next))
(define-fun .def_295 () Bool (= call_speed.ite3.next call_speed.flby.next))
(define-fun .def_290 () Bool (not call_speed.early))
(define-fun .def_287 () Bool (<= call_speed.diff.next 0))
(define-fun .def_288 () Bool (not .def_287))
(define-fun .def_289 () Bool (= call_speed.ite3.next .def_288))
(define-fun .def_291 () Bool (or .def_289 .def_290))
(define-fun .def_283 () Bool (<= 10 call_speed.diff.next))
(define-fun .def_285 () Bool (= .def_283 call_speed.ite3.next))
(define-fun .def_286 () Bool (or call_speed.early .def_285))
(define-fun .def_292 () Bool (and .def_286 .def_291))
(define-fun .def_280 () Bool (not call_speed.late))
(define-fun .def_277 () Bool (<= 0 call_speed.diff.next))
(define-fun .def_278 () Bool (not .def_277))
(define-fun .def_279 () Bool (= call_speed.ite4.next .def_278))
(define-fun .def_281 () Bool (or .def_279 .def_280))
(define-fun .def_273 () Bool (<= call_speed.diff.next (- 10)))
(define-fun .def_275 () Bool (= .def_273 call_speed.ite4.next))
(define-fun .def_276 () Bool (or call_speed.late .def_275))
(define-fun .def_282 () Bool (and .def_276 .def_281))
(define-fun .def_293 () Bool (and .def_282 .def_292))
(define-fun .def_296 () Bool (and .def_293 .def_295))
(define-fun .def_299 () Bool (and .def_296 .def_298))
(define-fun .def_302 () Bool (and .def_299 .def_301))
(define-fun .def_372 () Bool (and .def_302 .def_371))
(assert .def_372)
